(declare-rel pu (Int Int Int))
(declare-rel po (Int Int))
(declare-rel inv1 (Int Int Int Int))
(declare-rel inv2 (Int Int Int Int))
(declare-var n Int)
(declare-var c Int)
(declare-var d Int)
(declare-var sl Int)
(declare-var n1 Int)
(declare-var c1 Int)
(declare-var d1 Int)
(declare-var sl1 Int)
(declare-rel fail ())


(rule (=> (and (> n 0) (= sl 0) (= c 0) (= d 0)) (inv1 c n d sl)))
(rule (=> (and (inv1 c n d sl) (< c n) (= c1 (+ c 1)) (pu n sl sl1)) (inv1 c1 n d sl1)))
(rule (=> (and (inv1 c n d sl) (not (< c n))) (inv2 c n d sl)))
(rule (=> (and (inv2 c n d sl) (not (= sl 0)) (= d1 (+ d 1)) (po sl sl1)) (inv2 c n d1 sl1)))
(rule (=> (and (inv2 c n d sl) (= sl 0) (not (= d n))) fail))

(query fail :print-certificate true)
